c colouring generated by benchmark framework
p edge 184 3916
v 1 1
v 2 0
v 3 3
v 4 17
v 5 14
v 6 12
v 7 11
v 8 10
v 9 8
v 10 6
v 11 9
v 12 7
v 13 5
v 14 4
v 15 18
v 16 2
v 17 0
v 18 15
v 19 8
v 20 7
v 21 6
v 22 5
v 23 4
v 24 3
v 25 2
v 26 1
v 27 14
v 28 13
v 29 12
v 30 11
v 31 10
v 32 9
v 33 29
v 34 27
v 35 27
v 36 28
v 37 19
v 38 16
v 39 16
v 40 16
v 41 16
v 42 16
v 43 16
v 44 16
v 45 16
v 46 13
v 47 13
v 48 13
v 49 13
v 50 15
v 51 16
v 52 19
v 53 20
v 54 21
v 55 16
v 56 16
v 57 16
v 58 16
v 59 16
v 60 16
v 61 23
v 62 17
v 63 22
v 64 24
v 65 27
v 66 26
v 67 25
v 68 17
v 69 18
v 70 24
v 71 17
v 72 19
v 73 19
v 74 20
v 75 18
v 76 18
v 77 18
v 78 23
v 79 19
v 80 20
v 81 21
v 82 22
v 83 18
v 84 23
v 85 19
v 86 20
v 87 24
v 88 26
v 89 21
v 90 22
v 91 23
v 92 23
v 93 24
v 94 25
v 95 25
v 96 26
v 97 27
v 98 27
v 99 28
v 100 28
v 101 28
v 102 28
v 103 28
v 104 28
v 105 28
v 106 28
v 107 28
v 108 0
v 109 27
v 110 28
v 111 28
v 112 28
v 113 30
v 114 27
v 115 29
v 116 28
v 117 29
v 118 28
v 119 29
v 120 28
v 121 27
v 122 28
v 123 27
v 124 27
v 125 16
v 126 0
v 127 28
v 128 28
v 129 29
v 130 29
v 131 29
v 132 30
v 133 29
v 134 29
v 135 29
v 136 28
v 137 28
v 138 0
v 139 28
v 140 0
v 141 28
v 142 30
v 143 29
v 144 29
v 145 29
v 146 28
v 147 28
v 148 0
v 149 27
v 150 0
v 151 29
v 152 29
v 153 29
v 154 29
v 155 29
v 156 0
v 157 28
v 158 0
v 159 17
v 160 16
v 161 22
v 162 23
v 163 24
v 164 16
v 165 17
v 166 23
v 167 22
v 168 21
v 169 20
v 170 19
v 171 18
v 172 17
v 173 16
v 174 16
v 175 17
v 176 16
v 177 18
v 178 0
v 179 22
v 180 22
v 181 0
v 182 17
v 183 16
v 184 16
